PROBLEM NAME: eil51_n6
KNAPSACK DATA TYPE: uncorrelated
DIMENSION: 6
NUMBER OF ITEMS: 25
CAPACITY OF KNAPSACK: 6108
MIN SPEED: 0.1
MAX SPEED: 1
RENTING RATIO: 13.55
EDGE_WEIGHT_TYPE: CEIL_2D
NODE_COORD_SECTION	(INDEX, X, Y):
1	31	62
2	52	41
3	27	23
4	57	58
5	62	42
6	43	67
ITEMS SECTION	(INDEX, PROFIT, WEIGHT, ASSIGNED NODE NUMBER):
1	928	539	6
2	848	454	6
3	813	354	6
4	790	280	6
5	773	586	6
6	753	519	4
7	752	4	4
8	682	337	4
9	652	486	4
10	647	883	4
11	605	134	5
12	488	354	5
13	477	851	5
14	393	17	5
15	374	13	5
16	364	139	2
17	353	938	2
18	264	58	2
19	245	675	2
20	242	954	2
21	234	355	3
22	225	696	3
23	112	139	3
24	111	936	3
25	50	498	3
